(set-logic QF_BV)
(define-fun implies ((p Bool) (q Bool)) Bool (or (not p) q))

(declare-const WikiMatrix Bool)
(declare-const Commercial Bool)
(declare-const GPL Bool)
(declare-const GPL2 Bool)
(declare-const NoLimit Bool)
(declare-const Language Bool)
(declare-const Java Bool)
(declare-const PHP Bool)
(declare-const Perl Bool)
(declare-const Python Bool)
(declare-const LicenseCostFee Bool)
(declare-const Community Bool)
(declare-const DifferentLicenses Bool)
(declare-const US Bool)
(declare-const Storage Bool)
(declare-const Database Bool)
(declare-const FileRCS Bool)
(declare-const Files Bool)
(declare-const Unicode Bool)
(assert
(and WikiMatrix(and(implies(or Commercial GPL GPL2 NoLimit)
 WikiMatrix)
(implies WikiMatrix(or(and Commercial(not GPL)
(not GPL2)
(not NoLimit))
(and(not Commercial)
 GPL(not GPL2)
(not NoLimit))
(and(not Commercial)
(not GPL)
 GPL2(not NoLimit))
(and(not Commercial)
(not GPL)
(not GPL2)
 NoLimit)))
(and(implies(or Java PHP Perl Python)
 Language)
(implies Language(or(and Java(not PHP)
(not Perl)
(not Python))
(and(not Java)
 PHP(not Perl)
(not Python))
(and(not Java)
(not PHP)
 Perl(not Python))
(and(not Java)
(not PHP)
(not Perl)
 Python))))
(and(implies(or Community DifferentLicenses US)
 LicenseCostFee)
(implies LicenseCostFee(or(and Community(not DifferentLicenses)
(not US))
(and(not Community)
 DifferentLicenses(not US))
(and(not Community)
(not DifferentLicenses)
 US))))
(and(implies(or Database FileRCS Files)
 Storage)
(implies Storage(or(and Database(not FileRCS)
(not Files))
(and(not Database)
 FileRCS(not Files))
(and(not Database)
(not FileRCS)
 Files))))
(and(implies Language WikiMatrix)
(implies LicenseCostFee WikiMatrix)
(implies Storage WikiMatrix)
(implies Unicode WikiMatrix)))
(and(implies(not LicenseCostFee)
 Storage)
(implies Commercial US)
(implies Community FileRCS)
(implies Database(not Python))
(implies DifferentLicenses(not GPL))
(implies FileRCS Community)
(implies FileRCS Perl)
(implies GPL Storage)
(implies GPL2 PHP)
(implies Java US)
(implies Language Unicode)
(implies LicenseCostFee(not Files))
(implies NoLimit(not DifferentLicenses))
(implies Perl FileRCS)
(implies Storage Unicode)
(implies US Commercial)
(implies US Java)
(implies Unicode(not NoLimit))
(implies Unicode Language)
(implies Unicode Storage)
(implies Unicode US)))
)